NAME : compression
TYPE : TSP
DIMENSION : 50
EDGE_WEIGHT_TYPE : EUC_2D
NODE_COORD_SECTION
1 163923 619734
2 122705 533448
3 667050 843097
4 782550 699359
5 350255 906967
6 795079 298707
7 126752 539503
8 148066 729718
9 772739 556477
10 140340 652980
11 902032 596804
12 663188 576883
13 142213 685354
14 976990 783196
15 655032 512040
16 554588 58506
17 278206 280691
18 708170 996100
19 193877 696116
20 619217 140336
21 532627 140169
22 152802 609967
23 998806 825610
24 757274 621931
25 679717 177004
26 452860 103643
27 583641 127221
28 474013 576867
29 624449 210246
30 711653 588447
31 769853 607134
32 79205 468365
33 87295 480469
34 181624 621601
35 846480 658404
36 889584 444627
37 120509 672176
38 643789 279401
39 268162 751076
40 264644 142332
41 308462 71795
42 397408 944752
43 806378 873474
44 320519 310685
45 539962 556741
46 559883 147815
47 717761 921375
48 626976 343974
49 208611 959107
50 544990 123964
EOF
